
     Program PWSCF v.7.5 starts on 31Mar2026 at 17:22:57 

     This program is part of the open-source Quantum ESPRESSO suite
     for quantum simulation of materials; please cite
         "P. Giannozzi et al., J. Phys.:Condens. Matter 21 395502 (2009);
         "P. Giannozzi et al., J. Phys.:Condens. Matter 29 465901 (2017);
         "P. Giannozzi et al., J. Chem. Phys. 152 154105 (2020);
          URL http://www.quantum-espresso.org", 
     in publications or presentations arising from this work. More details at
     http://www.quantum-espresso.org/quote

     Parallel version (MPI), running on     8 processors

     MPI processes distributed on     1 nodes
     0 MiB available memory on the printing compute node when the environment starts

     Reading input from ./qe_inputs/1_SrZr7Ge6/1_SrZr7Ge6__orig__baseline.in
Warning: card &FCP ignored
Warning: card &RISM ignored

     Current dimensions of program PWSCF are:
     Max number of different atomic species (ntypx) = 10
     Max number of k-points (npk) =  40000
     Max angular momentum in pseudopotentials (lmaxx) =  4
     file Ge.UPF: wavefunction(s)  4S 4P 3D renormalized

     R & G space division:  proc/nbgrp/npool/nimage =       8
     Subspace diagonalization in iterative solution of the eigenvalue problem:
     a serial algorithm will be used


     Parallelization info
     --------------------
     sticks:   dense  smooth     PW     G-vecs:    dense   smooth      PW
     Min        1017     507    146                35657    12603    1962
     Max        1018     508    147                35659    12606    1964
     Sum        8141    4063   1169               285263   100839   15701

     Using Slab Decomposition



     bravais-lattice index     =            0
     lattice parameter (alat)  =      20.1853  a.u.
     unit-cell volume          =    2951.9188 (a.u.)^3
     number of atoms/cell      =           14
     number of atomic types    =            3
     number of electrons       =       178.00
     number of Kohn-Sham states=          107
     kinetic-energy cutoff     =      40.0000  Ry
     charge density cutoff     =     320.0000  Ry
     scf convergence threshold =      1.0E-04
     mixing beta               =       0.3000
     number of iterations used =            8  local-TF  mixing
     energy convergence thresh.=      1.0E-04
     force convergence thresh. =      1.0E-03
     press convergence thresh. =      5.0E-01
     Exchange-correlation= SLA  PW   PBX  PBC
                           (   1   4   3   4   0   0   0)
     nstep                     =           50


     celldm(1)=  20.185343  celldm(2)=   0.000000  celldm(3)=   0.000000
     celldm(4)=   0.000000  celldm(5)=   0.000000  celldm(6)=   0.000000

     crystal axes: (cart. coord. in units of alat)
               a(1) = (   0.906308   0.000000  -0.422618 )  
               a(2) = (  -0.000000   0.784938   0.000000 )  
               a(3) = (   0.000000   0.000000   0.504528 )  

     reciprocal axes: (cart. coord. in units 2 pi/alat)
               b(1) = (  1.103378  0.000000 -0.000000 )  
               b(2) = ( -0.000000  1.273987  0.000000 )  
               b(3) = (  0.924245  0.000000  1.982051 )  


     PseudoPot. # 1 for Sr read from file:
     /Users/zhangjunyao/Desktop/YAOYAO/others-research/SunXiaojing/SC-CGmodel-code/comment4-DFT/pseudo/Sr.UPF
     MD5 check sum: df95d8ab5d189579341928a72a372c9b
     Pseudo is Ultrasoft + core correction, Zval = 10.0
     Generated using "atomic" code by A. Dal Corso  v.5.1
     Using radial grid of 1221 points,  6 beta functions with: 
                l(1) =   0
                l(2) =   0
                l(3) =   1
                l(4) =   1
                l(5) =   2
                l(6) =   2
     Q(r) pseudized with 0 coefficients 


     PseudoPot. # 2 for Zr read from file:
     /Users/zhangjunyao/Desktop/YAOYAO/others-research/SunXiaojing/SC-CGmodel-code/comment4-DFT/pseudo/Zr.UPF
     MD5 check sum: 5db81b1e868ab7776c4564c113de050b
     Pseudo is Ultrasoft + core correction, Zval = 12.0
     Generated by new atomic code, or converted to UPF format
     Using radial grid of  887 points,  6 beta functions with: 
                l(1) =   0
                l(2) =   0
                l(3) =   1
                l(4) =   1
                l(5) =   2
                l(6) =   2
     Q(r) pseudized with  6 coefficients,  rinner =    1.200   1.200   1.200
                                                       1.200   1.200

     PseudoPot. # 3 for Ge read from file:
     /Users/zhangjunyao/Desktop/YAOYAO/others-research/SunXiaojing/SC-CGmodel-code/comment4-DFT/pseudo/Ge.UPF
     MD5 check sum: 77625b690120e98562384de5be973ccc
     Pseudo is Projector augmented-wave + core cor, Zval = 14.0
     Generated using "atomic" code by A. Dal Corso  v.5.1
     Shape of augmentation charge: PSQ
     Using radial grid of 1207 points,  6 beta functions with: 
                l(1) =   0
                l(2) =   0
                l(3) =   1
                l(4) =   1
                l(5) =   2
                l(6) =   2
     Q(r) pseudized with 0 coefficients 


     atomic species   valence    mass     pseudopotential
     Sr               10.00    87.62000     Sr( 1.00)
     Zr               12.00    91.22400     Zr( 1.00)
     Ge               14.00    72.64000     Ge( 1.00)

     No symmetry found


                                    s                        frac. trans.

      isym =  1     identity                                     

 cryst.   s( 1) = (     1          0          0      )
                  (     0          1          0      )
                  (     0          0          1      )

 cart.    s( 1) = (  1.0000000  0.0000000  0.0000000 )
                  (  0.0000000  1.0000000  0.0000000 )
                  ( -0.0000000  0.0000000  1.0000000 )


   Cartesian axes

     site n.     atom                  positions (alat units)
         1        Sr     tau(   1) = (   0.6242837   0.2692759  -0.1508034  )
         2        Zr     tau(   2) = (   0.2983415   0.5170713   0.1078772  )
         3        Zr     tau(   3) = (   0.1972919   0.4783418   0.0545678  )
         4        Zr     tau(   4) = (   0.4492158   0.3650807   0.0943635  )
         5        Zr     tau(   5) = (   0.3316470   0.3512548   0.0754040  )
         6        Zr     tau(   6) = (   0.5362850   0.3274363   0.0004764  )
         7        Zr     tau(   7) = (   0.4483557   0.5755129   0.0684830  )
         8        Zr     tau(   8) = (   0.4550139   0.2274138   0.1421876  )
         9        Ge     tau(   9) = (   0.4610843   0.4206451   0.1292763  )
        10        Ge     tau(  10) = (   0.5376429   0.4274068  -0.0108148  )
        11        Ge     tau(  11) = (   0.6685057   0.3186652   0.0012945  )
        12        Ge     tau(  12) = (   0.4173407   0.3406407   0.1872714  )
        13        Ge     tau(  13) = (   0.5548770   0.3988713  -0.1132868  )
        14        Ge     tau(  14) = (   0.4860771   0.4642722   0.1577147  )

   Crystallographic axes

     site n.     atom                  positions (cryst. coord.)
         1        Sr     tau(   1) = (  0.6888208  0.3430539  0.2780914  )
         2        Zr     tau(   2) = (  0.3291834  0.6587419  0.4895588  )
         3        Zr     tau(   3) = (  0.2176875  0.6094011  0.2905023  )
         4        Zr     tau(   4) = (  0.4956548  0.4651079  0.6022190  )
         5        Zr     tau(   5) = (  0.3659319  0.4474939  0.4559777  )
         6        Zr     tau(   6) = (  0.5917251  0.4171495  0.4966032  )
         7        Zr     tau(   7) = (  0.4947058  0.7331958  0.5501275  )
         8        Zr     tau(   8) = (  0.5020523  0.2897221  0.7023677  )
         9        Ge     tau(   9) = (  0.5087502  0.5358963  0.6823873  )
        10        Ge     tau(  10) = (  0.5932233  0.5445106  0.4754785  )
        11        Ge     tau(  11) = (  0.7376145  0.4059753  0.6204292  )
        12        Ge     tau(  12) = (  0.4604846  0.4339717  0.7569068  )
        13        Ge     tau(  13) = (  0.6122390  0.5081568  0.2883023  )
        14        Ge     tau(  14) = (  0.5363268  0.5914766  0.7618531  )

     number of k points=   112  Methfessel-Paxton smearing, width (Ry)=  0.0200
                       cart. coord. in units 2pi/alat
        k(    1) = (   0.0000000   0.0000000   0.0000000), wk =   0.0092593
        k(    2) = (   0.1540409   0.0000000   0.3303418), wk =   0.0185185
        k(    3) = (   0.3080818   0.0000000   0.6606836), wk =   0.0185185
        k(    4) = (  -0.4621227   0.0000000  -0.9910254), wk =   0.0092593
        k(    5) = (   0.0000000   0.2123311   0.0000000), wk =   0.0185185
        k(    6) = (   0.1540409   0.2123311   0.3303418), wk =   0.0185185
        k(    7) = (   0.3080818   0.2123311   0.6606836), wk =   0.0185185
        k(    8) = (  -0.4621227   0.2123311  -0.9910254), wk =   0.0185185
        k(    9) = (   0.0000000   0.4246622   0.0000000), wk =   0.0185185
        k(   10) = (   0.1540409   0.4246622   0.3303418), wk =   0.0185185
        k(   11) = (   0.3080818   0.4246622   0.6606836), wk =   0.0185185
        k(   12) = (  -0.4621227   0.4246622  -0.9910254), wk =   0.0185185
        k(   13) = (   0.0000000  -0.6369934   0.0000000), wk =   0.0092593
        k(   14) = (   0.1540409  -0.6369934   0.3303418), wk =   0.0185185
        k(   15) = (   0.3080818  -0.6369934   0.6606836), wk =   0.0185185
        k(   16) = (  -0.4621227  -0.6369934  -0.9910254), wk =   0.0092593
        k(   17) = (   0.1838963   0.0000000   0.0000000), wk =   0.0185185
        k(   18) = (   0.3379372   0.0000000   0.3303418), wk =   0.0185185
        k(   19) = (   0.4919781   0.0000000   0.6606836), wk =   0.0185185
        k(   20) = (  -0.2782264   0.0000000  -0.9910254), wk =   0.0185185
        k(   21) = (  -0.1241855   0.0000000  -0.6606836), wk =   0.0185185
        k(   22) = (   0.0298554   0.0000000  -0.3303418), wk =   0.0185185
        k(   23) = (   0.1838963   0.2123311   0.0000000), wk =   0.0185185
        k(   24) = (   0.3379372   0.2123311   0.3303418), wk =   0.0185185
        k(   25) = (   0.4919781   0.2123311   0.6606836), wk =   0.0185185
        k(   26) = (  -0.2782264   0.2123311  -0.9910254), wk =   0.0185185
        k(   27) = (  -0.1241855   0.2123311  -0.6606836), wk =   0.0185185
        k(   28) = (   0.0298554   0.2123311  -0.3303418), wk =   0.0185185
        k(   29) = (   0.1838963   0.4246622   0.0000000), wk =   0.0185185
        k(   30) = (   0.3379372   0.4246622   0.3303418), wk =   0.0185185
        k(   31) = (   0.4919781   0.4246622   0.6606836), wk =   0.0185185
        k(   32) = (  -0.2782264   0.4246622  -0.9910254), wk =   0.0185185
        k(   33) = (  -0.1241855   0.4246622  -0.6606836), wk =   0.0185185
        k(   34) = (   0.0298554   0.4246622  -0.3303418), wk =   0.0185185
        k(   35) = (   0.1838963  -0.6369934   0.0000000), wk =   0.0185185
        k(   36) = (   0.3379372  -0.6369934   0.3303418), wk =   0.0185185
        k(   37) = (   0.4919781  -0.6369934   0.6606836), wk =   0.0185185
        k(   38) = (  -0.2782264  -0.6369934  -0.9910254), wk =   0.0185185
        k(   39) = (  -0.1241855  -0.6369934  -0.6606836), wk =   0.0185185
        k(   40) = (   0.0298554  -0.6369934  -0.3303418), wk =   0.0185185
        k(   41) = (   0.3677926   0.0000000   0.0000000), wk =   0.0185185
        k(   42) = (   0.5218336   0.0000000   0.3303418), wk =   0.0185185
        k(   43) = (   0.6758745   0.0000000   0.6606836), wk =   0.0185185
        k(   44) = (  -0.0943301   0.0000000  -0.9910254), wk =   0.0185185
        k(   45) = (   0.0597108   0.0000000  -0.6606836), wk =   0.0185185
        k(   46) = (   0.2137517   0.0000000  -0.3303418), wk =   0.0185185
        k(   47) = (   0.3677926   0.2123311   0.0000000), wk =   0.0185185
        k(   48) = (   0.5218336   0.2123311   0.3303418), wk =   0.0185185
        k(   49) = (   0.6758745   0.2123311   0.6606836), wk =   0.0185185
        k(   50) = (  -0.0943301   0.2123311  -0.9910254), wk =   0.0185185
        k(   51) = (   0.0597108   0.2123311  -0.6606836), wk =   0.0185185
        k(   52) = (   0.2137517   0.2123311  -0.3303418), wk =   0.0185185
        k(   53) = (   0.3677926   0.4246622   0.0000000), wk =   0.0185185
        k(   54) = (   0.5218336   0.4246622   0.3303418), wk =   0.0185185
        k(   55) = (   0.6758745   0.4246622   0.6606836), wk =   0.0185185
        k(   56) = (  -0.0943301   0.4246622  -0.9910254), wk =   0.0185185
        k(   57) = (   0.0597108   0.4246622  -0.6606836), wk =   0.0185185
        k(   58) = (   0.2137517   0.4246622  -0.3303418), wk =   0.0185185
        k(   59) = (   0.3677926  -0.6369934   0.0000000), wk =   0.0185185
        k(   60) = (   0.5218336  -0.6369934   0.3303418), wk =   0.0185185
        k(   61) = (   0.6758745  -0.6369934   0.6606836), wk =   0.0185185
        k(   62) = (  -0.0943301  -0.6369934  -0.9910254), wk =   0.0185185
        k(   63) = (   0.0597108  -0.6369934  -0.6606836), wk =   0.0185185
        k(   64) = (   0.2137517  -0.6369934  -0.3303418), wk =   0.0185185
        k(   65) = (  -0.5516890   0.0000000   0.0000000), wk =   0.0092593
        k(   66) = (  -0.3976480   0.0000000   0.3303418), wk =   0.0185185
        k(   67) = (  -0.2436071   0.0000000   0.6606836), wk =   0.0185185
        k(   68) = (  -1.0138117   0.0000000  -0.9910254), wk =   0.0092593
        k(   69) = (  -0.5516890   0.2123311   0.0000000), wk =   0.0185185
        k(   70) = (  -0.3976480   0.2123311   0.3303418), wk =   0.0185185
        k(   71) = (  -0.2436071   0.2123311   0.6606836), wk =   0.0185185
        k(   72) = (  -1.0138117   0.2123311  -0.9910254), wk =   0.0185185
        k(   73) = (  -0.5516890   0.4246622   0.0000000), wk =   0.0185185
        k(   74) = (  -0.3976480   0.4246622   0.3303418), wk =   0.0185185
        k(   75) = (  -0.2436071   0.4246622   0.6606836), wk =   0.0185185
        k(   76) = (  -1.0138117   0.4246622  -0.9910254), wk =   0.0185185
        k(   77) = (  -0.5516890  -0.6369934   0.0000000), wk =   0.0092593
        k(   78) = (  -0.3976480  -0.6369934   0.3303418), wk =   0.0185185
        k(   79) = (  -0.2436071  -0.6369934   0.6606836), wk =   0.0185185
        k(   80) = (  -1.0138117  -0.6369934  -0.9910254), wk =   0.0092593
        k(   81) = (  -0.1540409   0.2123311  -0.3303418), wk =   0.0185185
        k(   82) = (  -0.3080818   0.2123311  -0.6606836), wk =   0.0185185
        k(   83) = (  -0.1540409   0.4246622  -0.3303418), wk =   0.0185185
        k(   84) = (  -0.3080818   0.4246622  -0.6606836), wk =   0.0185185
        k(   85) = (  -0.1838963   0.2123311   0.0000000), wk =   0.0185185
        k(   86) = (  -0.3379372   0.2123311  -0.3303418), wk =   0.0185185
        k(   87) = (  -0.4919781   0.2123311  -0.6606836), wk =   0.0185185
        k(   88) = (   0.2782264   0.2123311   0.9910254), wk =   0.0185185
        k(   89) = (   0.1241855   0.2123311   0.6606836), wk =   0.0185185
        k(   90) = (  -0.0298554   0.2123311   0.3303418), wk =   0.0185185
        k(   91) = (  -0.1838963   0.4246622   0.0000000), wk =   0.0185185
        k(   92) = (  -0.3379372   0.4246622  -0.3303418), wk =   0.0185185
        k(   93) = (  -0.4919781   0.4246622  -0.6606836), wk =   0.0185185
        k(   94) = (   0.2782264   0.4246622   0.9910254), wk =   0.0185185
        k(   95) = (   0.1241855   0.4246622   0.6606836), wk =   0.0185185
        k(   96) = (  -0.0298554   0.4246622   0.3303418), wk =   0.0185185
        k(   97) = (  -0.3677926   0.2123311   0.0000000), wk =   0.0185185
        k(   98) = (  -0.5218336   0.2123311  -0.3303418), wk =   0.0185185
        k(   99) = (  -0.6758745   0.2123311  -0.6606836), wk =   0.0185185
        k(  100) = (   0.0943301   0.2123311   0.9910254), wk =   0.0185185
        k(  101) = (  -0.0597108   0.2123311   0.6606836), wk =   0.0185185
        k(  102) = (  -0.2137517   0.2123311   0.3303418), wk =   0.0185185
        k(  103) = (  -0.3677926   0.4246622   0.0000000), wk =   0.0185185
        k(  104) = (  -0.5218336   0.4246622  -0.3303418), wk =   0.0185185
        k(  105) = (  -0.6758745   0.4246622  -0.6606836), wk =   0.0185185
        k(  106) = (   0.0943301   0.4246622   0.9910254), wk =   0.0185185
        k(  107) = (  -0.0597108   0.4246622   0.6606836), wk =   0.0185185
        k(  108) = (  -0.2137517   0.4246622   0.3303418), wk =   0.0185185
        k(  109) = (   0.3976480   0.2123311  -0.3303418), wk =   0.0185185
        k(  110) = (   0.2436071   0.2123311  -0.6606836), wk =   0.0185185
        k(  111) = (   0.3976480   0.4246622  -0.3303418), wk =   0.0185185
        k(  112) = (   0.2436071   0.4246622  -0.6606836), wk =   0.0185185

                       cryst. coord.
        k(    1) = (   0.0000000   0.0000000   0.0000000), wk =   0.0092593
        k(    2) = (  -0.0000000   0.0000000   0.1666667), wk =   0.0185185
        k(    3) = (  -0.0000000   0.0000000   0.3333333), wk =   0.0185185
        k(    4) = (  -0.0000000   0.0000000  -0.5000000), wk =   0.0092593
        k(    5) = (   0.0000000   0.1666667   0.0000000), wk =   0.0185185
        k(    6) = (  -0.0000000   0.1666667   0.1666667), wk =   0.0185185
        k(    7) = (  -0.0000000   0.1666667   0.3333333), wk =   0.0185185
        k(    8) = (  -0.0000000   0.1666667  -0.5000000), wk =   0.0185185
        k(    9) = (   0.0000000   0.3333333   0.0000000), wk =   0.0185185
        k(   10) = (  -0.0000000   0.3333333   0.1666667), wk =   0.0185185
        k(   11) = (  -0.0000000   0.3333333   0.3333333), wk =   0.0185185
        k(   12) = (  -0.0000000   0.3333333  -0.5000000), wk =   0.0185185
        k(   13) = (   0.0000000  -0.5000000   0.0000000), wk =   0.0092593
        k(   14) = (  -0.0000000  -0.5000000   0.1666667), wk =   0.0185185
        k(   15) = (  -0.0000000  -0.5000000   0.3333333), wk =   0.0185185
        k(   16) = (  -0.0000000  -0.5000000  -0.5000000), wk =   0.0092593
        k(   17) = (   0.1666667   0.0000000   0.0000000), wk =   0.0185185
        k(   18) = (   0.1666667   0.0000000   0.1666667), wk =   0.0185185
        k(   19) = (   0.1666667   0.0000000   0.3333333), wk =   0.0185185
        k(   20) = (   0.1666667   0.0000000  -0.5000000), wk =   0.0185185
        k(   21) = (   0.1666667   0.0000000  -0.3333333), wk =   0.0185185
        k(   22) = (   0.1666667   0.0000000  -0.1666667), wk =   0.0185185
        k(   23) = (   0.1666667   0.1666667   0.0000000), wk =   0.0185185
        k(   24) = (   0.1666667   0.1666667   0.1666667), wk =   0.0185185
        k(   25) = (   0.1666667   0.1666667   0.3333333), wk =   0.0185185
        k(   26) = (   0.1666667   0.1666667  -0.5000000), wk =   0.0185185
        k(   27) = (   0.1666667   0.1666667  -0.3333333), wk =   0.0185185
        k(   28) = (   0.1666667   0.1666667  -0.1666667), wk =   0.0185185
        k(   29) = (   0.1666667   0.3333333   0.0000000), wk =   0.0185185
        k(   30) = (   0.1666667   0.3333333   0.1666667), wk =   0.0185185
        k(   31) = (   0.1666667   0.3333333   0.3333333), wk =   0.0185185
        k(   32) = (   0.1666667   0.3333333  -0.5000000), wk =   0.0185185
        k(   33) = (   0.1666667   0.3333333  -0.3333333), wk =   0.0185185
        k(   34) = (   0.1666667   0.3333333  -0.1666667), wk =   0.0185185
        k(   35) = (   0.1666667  -0.5000000   0.0000000), wk =   0.0185185
        k(   36) = (   0.1666667  -0.5000000   0.1666667), wk =   0.0185185
        k(   37) = (   0.1666667  -0.5000000   0.3333333), wk =   0.0185185
        k(   38) = (   0.1666667  -0.5000000  -0.5000000), wk =   0.0185185
        k(   39) = (   0.1666667  -0.5000000  -0.3333333), wk =   0.0185185
        k(   40) = (   0.1666667  -0.5000000  -0.1666667), wk =   0.0185185
        k(   41) = (   0.3333333   0.0000000   0.0000000), wk =   0.0185185
        k(   42) = (   0.3333333   0.0000000   0.1666667), wk =   0.0185185
        k(   43) = (   0.3333333   0.0000000   0.3333333), wk =   0.0185185
        k(   44) = (   0.3333333   0.0000000  -0.5000000), wk =   0.0185185
        k(   45) = (   0.3333333   0.0000000  -0.3333333), wk =   0.0185185
        k(   46) = (   0.3333333   0.0000000  -0.1666667), wk =   0.0185185
        k(   47) = (   0.3333333   0.1666667   0.0000000), wk =   0.0185185
        k(   48) = (   0.3333333   0.1666667   0.1666667), wk =   0.0185185
        k(   49) = (   0.3333333   0.1666667   0.3333333), wk =   0.0185185
        k(   50) = (   0.3333333   0.1666667  -0.5000000), wk =   0.0185185
        k(   51) = (   0.3333333   0.1666667  -0.3333333), wk =   0.0185185
        k(   52) = (   0.3333333   0.1666667  -0.1666667), wk =   0.0185185
        k(   53) = (   0.3333333   0.3333333   0.0000000), wk =   0.0185185
        k(   54) = (   0.3333333   0.3333333   0.1666667), wk =   0.0185185
        k(   55) = (   0.3333333   0.3333333   0.3333333), wk =   0.0185185
        k(   56) = (   0.3333333   0.3333333  -0.5000000), wk =   0.0185185
        k(   57) = (   0.3333333   0.3333333  -0.3333333), wk =   0.0185185
        k(   58) = (   0.3333333   0.3333333  -0.1666667), wk =   0.0185185
        k(   59) = (   0.3333333  -0.5000000   0.0000000), wk =   0.0185185
        k(   60) = (   0.3333333  -0.5000000   0.1666667), wk =   0.0185185
        k(   61) = (   0.3333333  -0.5000000   0.3333333), wk =   0.0185185
        k(   62) = (   0.3333333  -0.5000000  -0.5000000), wk =   0.0185185
        k(   63) = (   0.3333333  -0.5000000  -0.3333333), wk =   0.0185185
        k(   64) = (   0.3333333  -0.5000000  -0.1666667), wk =   0.0185185
        k(   65) = (  -0.5000000   0.0000000   0.0000000), wk =   0.0092593
        k(   66) = (  -0.5000000   0.0000000   0.1666667), wk =   0.0185185
        k(   67) = (  -0.5000000   0.0000000   0.3333333), wk =   0.0185185
        k(   68) = (  -0.5000000   0.0000000  -0.5000000), wk =   0.0092593
        k(   69) = (  -0.5000000   0.1666667   0.0000000), wk =   0.0185185
        k(   70) = (  -0.5000000   0.1666667   0.1666667), wk =   0.0185185
        k(   71) = (  -0.5000000   0.1666667   0.3333333), wk =   0.0185185
        k(   72) = (  -0.5000000   0.1666667  -0.5000000), wk =   0.0185185
        k(   73) = (  -0.5000000   0.3333333   0.0000000), wk =   0.0185185
        k(   74) = (  -0.5000000   0.3333333   0.1666667), wk =   0.0185185
        k(   75) = (  -0.5000000   0.3333333   0.3333333), wk =   0.0185185
        k(   76) = (  -0.5000000   0.3333333  -0.5000000), wk =   0.0185185
        k(   77) = (  -0.5000000  -0.5000000   0.0000000), wk =   0.0092593
        k(   78) = (  -0.5000000  -0.5000000   0.1666667), wk =   0.0185185
        k(   79) = (  -0.5000000  -0.5000000   0.3333333), wk =   0.0185185
        k(   80) = (  -0.5000000  -0.5000000  -0.5000000), wk =   0.0092593
        k(   81) = (   0.0000000   0.1666667  -0.1666667), wk =   0.0185185
        k(   82) = (   0.0000000   0.1666667  -0.3333333), wk =   0.0185185
        k(   83) = (   0.0000000   0.3333333  -0.1666667), wk =   0.0185185
        k(   84) = (   0.0000000   0.3333333  -0.3333333), wk =   0.0185185
        k(   85) = (  -0.1666667   0.1666667   0.0000000), wk =   0.0185185
        k(   86) = (  -0.1666667   0.1666667  -0.1666667), wk =   0.0185185
        k(   87) = (  -0.1666667   0.1666667  -0.3333333), wk =   0.0185185
        k(   88) = (  -0.1666667   0.1666667   0.5000000), wk =   0.0185185
        k(   89) = (  -0.1666667   0.1666667   0.3333333), wk =   0.0185185
        k(   90) = (  -0.1666667   0.1666667   0.1666667), wk =   0.0185185
        k(   91) = (  -0.1666667   0.3333333   0.0000000), wk =   0.0185185
        k(   92) = (  -0.1666667   0.3333333  -0.1666667), wk =   0.0185185
        k(   93) = (  -0.1666667   0.3333333  -0.3333333), wk =   0.0185185
        k(   94) = (  -0.1666667   0.3333333   0.5000000), wk =   0.0185185
        k(   95) = (  -0.1666667   0.3333333   0.3333333), wk =   0.0185185
        k(   96) = (  -0.1666667   0.3333333   0.1666667), wk =   0.0185185
        k(   97) = (  -0.3333333   0.1666667   0.0000000), wk =   0.0185185
        k(   98) = (  -0.3333333   0.1666667  -0.1666667), wk =   0.0185185
        k(   99) = (  -0.3333333   0.1666667  -0.3333333), wk =   0.0185185
        k(  100) = (  -0.3333333   0.1666667   0.5000000), wk =   0.0185185
        k(  101) = (  -0.3333333   0.1666667   0.3333333), wk =   0.0185185
        k(  102) = (  -0.3333333   0.1666667   0.1666667), wk =   0.0185185
        k(  103) = (  -0.3333333   0.3333333   0.0000000), wk =   0.0185185
        k(  104) = (  -0.3333333   0.3333333  -0.1666667), wk =   0.0185185
        k(  105) = (  -0.3333333   0.3333333  -0.3333333), wk =   0.0185185
        k(  106) = (  -0.3333333   0.3333333   0.5000000), wk =   0.0185185
        k(  107) = (  -0.3333333   0.3333333   0.3333333), wk =   0.0185185
        k(  108) = (  -0.3333333   0.3333333   0.1666667), wk =   0.0185185
        k(  109) = (   0.5000000   0.1666667  -0.1666667), wk =   0.0185185
        k(  110) = (   0.5000000   0.1666667  -0.3333333), wk =   0.0185185
        k(  111) = (   0.5000000   0.3333333  -0.1666667), wk =   0.0185185
        k(  112) = (   0.5000000   0.3333333  -0.3333333), wk =   0.0185185

     Dense  grid:   285263 G-vectors     FFT dimensions: ( 120,  96,  60)

     Smooth grid:   100839 G-vectors     FFT dimensions: (  81,  64,  45)

     Dynamical RAM for                 wfc:       2.57 MB

     Dynamical RAM for     wfc (w. buffer):     290.76 MB

     Dynamical RAM for           str. fact:       1.63 MB

     Dynamical RAM for           local pot:       0.00 MB

     Dynamical RAM for          nlocal pot:       6.06 MB

     Dynamical RAM for                qrad:       8.62 MB

     Dynamical RAM for          rho,v,vnew:       3.74 MB

     Dynamical RAM for               rhoin:       1.25 MB

     Dynamical RAM for            rho*nmix:       8.71 MB

     Dynamical RAM for           G-vectors:       2.14 MB

     Dynamical RAM for          h,s,v(r/c):       2.10 MB

     Dynamical RAM for          <psi|beta>:       0.41 MB

     Dynamical RAM for                 psi:       5.15 MB

     Dynamical RAM for                hpsi:       5.15 MB

     Dynamical RAM for                spsi:       5.15 MB

     Dynamical RAM for      wfcinit/wfcrot:       5.41 MB

     Dynamical RAM for           addusdens:     105.01 MB

     Dynamical RAM for          addusforce:     111.84 MB

     Dynamical RAM for         addusstress:     109.36 MB

     Estimated static dynamical RAM per process >     319.89 MB

     Estimated max dynamical RAM per process >     440.43 MB

     Estimated total dynamical RAM >       3.44 GB

     Check: negative core charge=   -0.000001

     Initial potential from superposition of free atoms

     starting charge     177.9728, renormalised to     178.0000

     negative rho (up, down):  2.994E-01 0.000E+00
     Starting wfcs are  153 randomized atomic wfcs
